(set-info :smt-lib-version 2.6)
(set-info :category "crafted")
(set-logic QF_FFA)
(define-sort FF0 () (_ FiniteField 52435875175126190479447740508185965837690552500527637822603658699938581184513))
(declare-fun k () Bool)
(declare-fun a () Bool)
(declare-fun f () Bool)
(declare-fun i () Bool)
(declare-fun d () Bool)
(declare-fun c () Bool)
(declare-fun e () Bool)
(declare-fun l () Bool)
(declare-fun j () Bool)
(declare-fun h () Bool)
(declare-fun g () Bool)
(declare-fun b () Bool)
(declare-fun return_n9 () FF0)
(declare-fun k_n3 () FF0)
(declare-fun d_n6 () FF0)
(declare-fun l_n12 () FF0)
(declare-fun j_n5 () FF0)
(declare-fun h_n11 () FF0)
(declare-fun mul_n14 () FF0)
(declare-fun a_n1 () FF0)
(declare-fun b_n10 () FF0)
(declare-fun mul_n13 () FF0)
(declare-fun g_n0 () FF0)
(declare-fun is_zero_inv_n15 () FF0)
(declare-fun f_n2 () FF0)
(declare-fun i_n7 () FF0)
(declare-fun c_n8 () FF0)
(declare-fun e_n4 () FF0)
(assert 
  (let ((let0 k))
  (let ((let1 (not let0)))
  (let ((let2 a))
  (let ((let3 f))
  (let ((let4 i))
  (let ((let5 (ite let4 let3 let2)))
  (let ((let6 d))
  (let ((let7 c))
  (let ((let8 e))
  (let ((let9 (ite let8 let7 let6)))
  (let ((let10 l))
  (let ((let11 j))
  (let ((let12 h))
  (let ((let13 g))
  (let ((let14 b))
  (let ((let15 (and let14 let13 let12 let11 let10 let9 let5 let1)))
  (let ((let16 return_n9))
  (let ((let17 (as ff1 FF0)))
  (let ((let18 (= let17 let16)))
  (let ((let19 (= let18 let15)))
  (let ((let20 (as ff0 FF0)))
  (let ((let21 (= let20 let16)))
  (let ((let22 (or let18 let21)))
  (let ((let23 (and let22 let19)))
  (let ((let24 (as ff7 FF0)))
  (let ((let25 k_n3))
  (let ((let26 (as ff52435875175126190479447740508185965837690552500527637822603658699938581184512 FF0)))
  (let ((let27 d_n6))
  (let ((let28 (ff.mul let27 let26)))
  (let ((let29 l_n12))
  (let ((let30 (ff.mul let29 let26)))
  (let ((let31 j_n5))
  (let ((let32 (ff.mul let31 let26)))
  (let ((let33 h_n11))
  (let ((let34 (ff.mul let33 let26)))
  (let ((let35 mul_n14))
  (let ((let36 (ff.mul let35 let26)))
  (let ((let37 a_n1))
  (let ((let38 (ff.mul let37 let26)))
  (let ((let39 b_n10))
  (let ((let40 (ff.mul let39 let26)))
  (let ((let41 mul_n13))
  (let ((let42 (ff.mul let41 let26)))
  (let ((let43 g_n0))
  (let ((let44 (ff.mul let43 let26)))
  (let ((let45 (ff.add let44 let42 let40 let38 let36 let34 let32 let30 let28 let25 let24)))
  (let ((let46 (ff.mul let16 let45)))
  (let ((let47 (= let46 let20)))
  (let ((let48 (ff.mul let16 let26)))
  (let ((let49 (ff.add let48 let17)))
  (let ((let50 is_zero_inv_n15))
  (let ((let51 (ff.mul let50 let45)))
  (let ((let52 (= let51 let49)))
  (let ((let53 f_n2))
  (let ((let54 (ff.add let38 let53)))
  (let ((let55 i_n7))
  (let ((let56 (ff.mul let55 let54)))
  (let ((let57 (= let56 let41)))
  (let ((let58 (and let57 let52 let47)))
  (let ((let59 (ite let2 let17 let20)))
  (let ((let60 (= let37 let59)))
  (let ((let61 (ite let14 let17 let20)))
  (let ((let62 (= let39 let61)))
  (let ((let63 (ite let12 let17 let20)))
  (let ((let64 (= let33 let63)))
  (let ((let65 (ite let10 let17 let20)))
  (let ((let66 (= let29 let65)))
  (let ((let67 (ite let7 let17 let20)))
  (let ((let68 c_n8))
  (let ((let69 (= let68 let67)))
  (let ((let70 (ite let4 let17 let20)))
  (let ((let71 (= let55 let70)))
  (let ((let72 (ite let13 let17 let20)))
  (let ((let73 (= let43 let72)))
  (let ((let74 (ite let6 let17 let20)))
  (let ((let75 (= let27 let74)))
  (let ((let76 (ite let0 let17 let20)))
  (let ((let77 (= let25 let76)))
  (let ((let78 (ite let8 let17 let20)))
  (let ((let79 e_n4))
  (let ((let80 (= let79 let78)))
  (let ((let81 (ite let3 let17 let20)))
  (let ((let82 (= let53 let81)))
  (let ((let83 (ite let11 let17 let20)))
  (let ((let84 (= let31 let83)))
  (let ((let85 (and let84 let82 let80 let77 let75 let73 let71 let69 let66 let64 let62 let60)))
  (let ((let86 (and let85 let58)))
  (let ((let87 (=> let86 let23)))
  (let ((let88 (not let87)))
  let88
)))))))))))))))))))))))))))))))))))))))))))))))))))))))))))))))))))))))))))))))))))))))))
)
(check-sat)
